benchmarks/bfuzz0/1706619753316072306635914594128422525.smt2
(set-logic QF_FP)
(declare-const x0 (_ FloatingPoint 8 24))
(declare-const x1 (_ FloatingPoint 8 24))
(assert (fp.gt (fp.neg (fp.sub RNE x0 x0)) (fp.add RNE (fp.sub RNE x1 x0) (fp.add RNE x0 x1))))
(assert (fp.gt (fp.mul RNE (fp.div RNE x1 x0) (fp.sub RNE x0 x1)) (fp.add RNE (fp.mul RNE x0 x1) (fp.add RNE x1 x0))))
(assert (fp.eq (fp.neg (fp.neg x1)) (fp.sub RNE (fp.div RNE x0 x0) (fp.add RNE x1 x1))))
(assert (fp.gt (fp.add RNE (fp.div RNE x1 x0) (fp.neg x1)) (fp.neg (fp.add RNE x1 x0))))
(assert (fp.leq (fp.add RNE (fp.add RNE x0 x1) (fp.div RNE x0 x1)) (fp.div RNE (fp.div RNE x0 x1) (fp.add RNE x0 x1))))
(assert (fp.lt (fp.add RNE (fp.sub RNE x0 x1) (fp.sub RNE x0 x1)) (fp.sub RNE (fp.div RNE x1 x1) (fp.div RNE x1 x0))))
(assert (fp.eq (fp.mul RNE (fp.div RNE x0 x1) (fp.div RNE x1 x0)) (fp.mul RNE (fp.div RNE x1 x0) (fp.add RNE x1 x0))))
(assert (fp.leq (fp.neg (fp.mul RNE x1 x1)) (fp.neg (fp.mul RNE x0 x0))))
(assert (fp.lt (fp.mul RNE (fp.div RNE x0 x0) (fp.add RNE x0 x1)) (fp.sub RNE (fp.sub RNE x1 x0) (fp.div RNE x0 x1))))
(assert (fp.eq (fp.add RNE (fp.sub RNE x1 x0) (fp.div RNE x0 x0)) (fp.add RNE (fp.add RNE x0 x1) (fp.neg x1))))
(assert (fp.lt (fp.sub RNE (fp.mul RNE x1 x1) (fp.sub RNE x0 x1)) (fp.neg (fp.sub RNE x0 x0))))
(check-sat)
