db/data/1706619753316072306635914594128422525.z3.out
unsat
-------------------
33.721036875
